
Gurobi 7.0.2 (linux64, Matlab) logging started Sun Sep  2 08:56:39 2018


Gurobi 7.0.2 (linux64) logging started Sun Sep  2 08:56:39 2018

Optimize a model with 19499 rows, 39020 columns and 109247 nonzeros
Coefficient statistics:
  Matrix range     [1e+00, 1e+00]
  Objective range  [2e-09, 2e-02]
  Bounds range     [4e+05, 1e+06]
  RHS range        [4e+02, 4e+05]
Iteration    Objective       Primal Inf.    Dual Inf.      Time
       0    5.6085293e+03   0.000000e+00   0.000000e+00      0s

Solved in 0 iterations and 0.01 seconds
Optimal objective  5.608529343e+03
